n = 10;

m = 16;
  	
46	70	61	3	53	74	14	25	73	51		
69	19	20	29	66	14	18	6	55	21	
21	10	21	47	53	3	2	41	58	18	
34	41	73	9	20	54	64	17	52	3	
44	38	41	61	61	15	9	60	35	43	
55	22	34	14	11	55	28	71	19	37	
8	34	44	23	32	55	6	9	9	34	
41	21	3	67	35	71	52	35	6	4	
18	64	58	11	18	7	62	45	47	49	
65	54	73	74	55	38	35	12	45	55	
5	37	24	12	73	47	43	22	21	74	
74	8	12	30	58	58	21	53	49	60	
1	53	65	36	47	72	65	16	46	38	
47	26	43	15	12	28	50	60	18	17		
53	57	26	23	70	27	29	57	1	47	
44	38	41	61	61	15	9	60	35	43	